
Gurobi 9.1.2 (win64, Java) logging started Fri Nov 12 00:55:37 2021

Academic license - for non-commercial use only - expires 2022-10-30
Gurobi Optimizer version 9.1.2 build v9.1.2rc0 (win64)
Thread count: 6 physical cores, 12 logical processors, using up to 12 threads
Optimize a model with 50 rows, 400 columns and 800 nonzeros
Model fingerprint: 0x9d6874e1
Variable types: 0 continuous, 400 integer (400 binary)
Coefficient statistics:
  Matrix range     [1e+00, 1e+03]
  Objective range  [8e+01, 8e+02]
  Bounds range     [1e+00, 1e+00]
  RHS range        [1e+00, 2e+03]
Found heuristic solution: objective 10512.000000
Presolve removed 0 rows and 120 columns
Presolve time: 0.00s
Presolved: 50 rows, 280 columns, 560 nonzeros
Variable types: 0 continuous, 280 integer (280 binary)
Presolved: 50 rows, 280 columns, 560 nonzeros


Root relaxation: objective 1.225006e+04, 108 iterations, 0.00 seconds

    Nodes    |    Current Node    |     Objective Bounds      |     Work
 Expl Unexpl |  Obj  Depth IntInf | Incumbent    BestBd   Gap | It/Node Time

     0     0 12250.0630    0   13 10512.0000 12250.0630  16.5%     -    0s
H    0     0                    11864.000000 12250.0630  3.25%     -    0s
     0     0 12247.3681    0   29 11864.0000 12247.3681  3.23%     -    0s
H    0     0                    11945.000000 12247.3681  2.53%     -    0s
     0     0 12247.3681    0   30 11945.0000 12247.3681  2.53%     -    0s
     0     0 12235.8953    0   37 11945.0000 12235.8953  2.44%     -    0s
     0     0 12229.2053    0   38 11945.0000 12229.2053  2.38%     -    0s
     0     0 12224.4784    0   38 11945.0000 12224.4784  2.34%     -    0s
     0     0 12222.8665    0   36 11945.0000 12222.8665  2.33%     -    0s
     0     0 12222.8665    0   35 11945.0000 12222.8665  2.33%     -    0s
H    0     0                    12017.000000 12222.8665  1.71%     -    0s
     0     0 12220.9447    0   19 12017.0000 12220.9447  1.70%     -    0s
     0     0 12220.9247    0   31 12017.0000 12220.9247  1.70%     -    0s
     0     0 12220.9247    0   34 12017.0000 12220.9247  1.70%     -    0s
     0     0 12220.7047    0   32 12017.0000 12220.7047  1.70%     -    0s
     0     0 12220.7047    0   33 12017.0000 12220.7047  1.70%     -    0s
     0     0 12220.2687    0   40 12017.0000 12220.2687  1.69%     -    0s
     0     0 12220.2687    0   45 12017.0000 12220.2687  1.69%     -    0s
     0     0 12218.8961    0   40 12017.0000 12218.8961  1.68%     -    0s
     0     0 12218.8934    0   44 12017.0000 12218.8934  1.68%     -    0s
     0     0 12218.2661    0   43 12017.0000 12218.2661  1.67%     -    0s
     0     0 12218.2661    0   48 12017.0000 12218.2661  1.67%     -    0s
H    0     0                    12103.000000 12218.2661  0.95%     -    0s
     0     0 12217.8161    0   39 12103.0000 12217.8161  0.95%     -    0s
     0     0 12217.8161    0   39 12103.0000 12217.8161  0.95%     -    0s
     0     0 12217.0168    0   35 12103.0000 12217.0168  0.94%     -    0s
     0     0 12216.8203    0   39 12103.0000 12216.8203  0.94%     -    0s
     0     0 12216.5989    0   39 12103.0000 12216.5989  0.94%     -    0s
     0     0 12216.5946    0   40 12103.0000 12216.5946  0.94%     -    0s
     0     0 12214.8567    0   14 12103.0000 12214.8567  0.92%     -    0s
     0     0 12214.8567    0   18 12103.0000 12214.8567  0.92%     -    0s
     0     0 12214.8567    0   16 12103.0000 12214.8567  0.92%     -    0s
     0     0 12214.8567    0   11 12103.0000 12214.8567  0.92%     -    0s
     0     2 12214.8567    0   11 12103.0000 12214.8567  0.92%     -    0s
H 1387  1083                    12110.000000 12198.9022  0.73%   9.9    2s
  5002  2710 12169.8650   79   26 12110.0000 12198.9022  0.73%  10.4    6s
 14529  9593 12196.6020   40   46 12110.0000 12198.9022  0.73%  18.0   10s
 19230 13647 12186.5380   55   31 12110.0000 12198.9022  0.73%  19.6   16s
H19564 12474                    12131.000000 12198.9022  0.56%  19.7   16s
H28508  7681                    12182.000000 12198.9022  0.14%  23.1   18s
 35786  8625 12192.3567   46   20 12182.0000 12198.6386  0.14%  27.6   20s
 43284  8793 12187.8468   55   52 12182.0000 12193.1074  0.09%  30.8   25s
 54199  8589 12190.6175   56   24 12182.0000 12192.2696  0.08%  36.7   30s
 57649  8953 12187.6150   59   57 12182.0000 12192.0514  0.08%  38.5   35s
 69171  7226 12186.0000   64   57 12182.0000 12188.4201  0.05%  43.0   40s
 78987  1456 12183.1424   61   59 12182.0000 12185.5729  0.03%  47.0   45s

Cutting planes:
  Gomory: 19
  Cover: 259
  Clique: 3
  MIR: 191
  StrongCG: 144
  Flow cover: 11
  Inf proof: 1
  Zero half: 10

Explored 83271 nodes (4062847 simplex iterations) in 49.12 seconds
Thread count was 12 (of 12 available processors)

Solution count 8: 12182 12131 12110 ... 10512

Optimal solution found (tolerance 1.00e-12)
Best objective 1.218200000000e+04, best bound 1.218200000000e+04, gap 0.0000%
